c uprop, v00.0, 
c reading from data/prog106.c.cnf
c done reading: 0.00243
p cnf 107 449
-56 -75 0
-60 -75 0
56 60 75 0
56 60 -82 0
-56 -60 -82 0
-56 60 82 0
56 -60 82 0
-64 75 0
-64 -65 0
64 65 -75 0
65 -71 -75 0
-65 -71 75 0
65 71 75 0
-65 71 -75 0
64 -74 0
-74 -76 0
-64 74 76 0
-64 76 -79 0
64 -76 -79 0
64 76 79 0
-64 -76 79 0
74 -80 0
-80 -83 0
-74 80 83 0
-59 -74 83 0
-59 74 -83 0
59 74 83 0
59 -74 -83 0
-55 80 0
-55 -62 0
55 62 -80 0
-54 62 -80 0
-54 -62 80 0
54 62 80 0
54 -62 -80 0
-53 55 0
-53 -68 0
53 -55 68 0
-52 -55 68 0
-52 55 -68 0
52 55 68 0
52 -55 -68 0
-51 53 0
-51 -72 0
51 -53 72 0
-50 -53 72 0
-50 53 -72 0
50 53 72 0
50 -53 -72 0
-49 60 0
-49 56 0
49 -56 -60 0
-48 -56 -60 0
-48 56 60 0
48 56 -60 0
48 -56 60 0
47 -60 -65 0
47 -49 -65 0
47 -49 -60 0
-47 60 65 0
-47 49 65 0
-47 49 60 0
-46 -47 65 0
-46 -47 60 0
-46 -47 49 0
46 47 -65 0
46 47 -60 0
46 47 -49 0
46 -49 -60 -65 0
-46 49 60 65 0
45 -65 -76 0
45 -47 -76 0
45 -47 -65 0
-45 65 76 0
-45 47 76 0
-45 47 65 0
-44 -45 76 0
-44 -45 65 0
-44 -45 47 0
44 45 -76 0
44 45 -65 0
44 45 -47 0
44 -47 -65 -76 0
-44 47 65 76 0
43 -76 -83 0
43 -45 -83 0
43 -45 -76 0
-43 76 83 0
-43 45 83 0
-43 45 76 0
-43 83 -85 0
-43 76 -85 0
-43 45 -85 0
43 -83 85 0
43 -76 85 0
43 -45 85 0
-45 -76 -83 85 0
45 76 83 -85 0
-62 -83 86 0
-43 -62 86 0
-43 -83 86 0
62 83 -86 0
43 62 -86 0
43 83 -86 0
62 -86 -87 0
83 -86 -87 0
43 -86 -87 0
-62 86 87 0
-83 86 87 0
-43 86 87 0
-43 -62 -83 87 0
43 62 83 -87 0
-62 -68 88 0
-68 -86 88 0
-62 -86 88 0
62 68 -88 0
68 86 -88 0
62 86 -88 0
68 -88 -89 0
62 -88 -89 0
86 -88 -89 0
-68 88 89 0
-62 88 89 0
-86 88 89 0
-62 -68 -86 89 0
62 68 86 -89 0
-68 -72 90 0
-72 -88 90 0
-68 -88 90 0
68 72 -90 0
72 88 -90 0
68 88 -90 0
-57 72 -90 0
-57 68 -90 0
-57 88 -90 0
57 -72 90 0
57 -68 90 0
57 -88 90 0
57 -68 -72 -88 0
-57 68 72 88 0
-61 72 0
-61 90 0
61 -72 -90 0
-66 -72 -90 0
-66 72 90 0
66 -72 90 0
66 72 -90 0
-56 -77 0
-48 -77 0
48 56 77 0
48 56 -84 0
-48 -56 -84 0
48 -56 84 0
-48 56 84 0
-63 77 0
-46 -63 0
46 63 -77 0
46 -69 -77 0
-46 -69 77 0
46 69 77 0
-46 69 -77 0
63 -73 0
-44 -73 0
44 -63 73 0
44 -63 -91 0
-44 63 -91 0
44 63 91 0
-44 -63 91 0
73 -92 0
-85 -92 0
-73 85 92 0
-73 85 -93 0
73 -85 -93 0
73 85 93 0
-73 -85 93 0
92 -94 0
-87 -94 0
87 -92 94 0
87 -92 -95 0
-87 92 -95 0
87 92 95 0
-87 -92 95 0
94 -98 0
-89 -98 0
89 -94 98 0
89 -94 -100 0
-89 94 -100 0
89 94 100 0
-89 -94 100 0
98 -101 0
-57 -101 0
57 -98 101 0
57 -98 -102 0
-57 98 -102 0
57 98 102 0
-57 -98 102 0
101 -103 0
-66 -103 0
66 -101 103 0
66 -101 -104 0
-66 101 -104 0
66 101 104 0
-66 -101 104 0
103 -105 0
-61 -105 0
61 -103 105 0
61 -103 -106 0
-61 103 -106 0
61 103 106 0
-61 -103 106 0
-97 -107 0
97 107 0
-42 -99 0
42 99 0
-39 -41 0
39 41 0
-37 -38 0
37 38 0
36 -97 0
-36 97 0
-35 -36 97 0
-35 -36 0
35 36 -97 0
35 36 0
34 -97 -99 0
34 -36 -99 0
34 -36 -97 0
-34 97 99 0
-34 36 99 0
-34 36 97 0
-33 -34 99 0
-33 -34 97 0
-33 -34 36 0
33 34 -99 0
33 34 -97 0
33 34 -36 0
33 -36 -97 -99 0
-33 36 97 99 0
32 -41 -99 0
32 -34 -41 0
32 -34 -99 0
-32 41 99 0
-32 34 41 0
-32 34 99 0
-31 -32 41 0
-31 -32 99 0
-31 -32 34 0
31 32 -41 0
31 32 -99 0
31 32 -34 0
31 -34 -41 -99 0
-31 34 41 99 0
30 -38 -41 0
30 -32 -38 0
30 -32 -41 0
-30 38 41 0
-30 32 38 0
-30 32 41 0
-29 -30 38 0
-29 -30 41 0
-29 -30 32 0
29 30 -38 0
29 30 -41 0
29 30 -32 0
29 -32 -38 -41 0
-29 32 38 41 0
-28 38 0
-28 30 0
28 -30 -38 0
-27 -30 -38 0
-27 30 38 0
27 30 -38 0
27 -30 38 0
-26 35 0
26 -35 0
25 -33 0
-25 33 0
-24 -25 33 0
-24 -25 0
24 25 -33 0
24 25 0
23 -25 -31 0
-23 31 0
-23 25 31 0
-23 25 0
-22 -23 31 0
-22 -23 0
-22 -23 25 0
22 23 -31 0
22 23 -25 0
-22 25 31 0
21 -29 0
21 -23 -29 0
21 -23 0
-21 23 29 0
-20 -21 29 0
-20 -21 23 0
20 21 -29 0
20 21 0
20 21 -23 0
20 -23 -29 0
19 -27 -97 0
19 -21 -27 0
19 -21 -97 0
-19 27 97 0
-19 21 27 0
-19 21 97 0
-18 -19 27 0
-18 -19 97 0
-18 -19 21 0
18 19 -27 0
18 19 -97 0
18 19 -21 0
18 -21 -27 -97 0
-18 21 27 97 0
17 -28 -99 0
17 -19 -28 0
17 -19 -99 0
-17 28 99 0
-17 19 28 0
-17 19 99 0
-16 -17 28 0
-16 -17 99 0
-16 -17 19 0
16 17 -28 0
16 17 -99 0
16 17 -19 0
16 -19 -28 -99 0
-16 19 28 99 0
-15 41 0
-15 17 0
15 -17 -41 0
-14 -17 -41 0
-14 17 41 0
14 17 -41 0
14 -17 41 0
-13 38 0
-13 15 0
13 -15 -38 0
-12 -15 -38 0
-12 15 38 0
12 15 -38 0
12 -15 38 0
-26 -67 0
26 67 0
-11 -24 0
11 24 0
-10 -22 0
10 22 0
-20 -96 0
20 96 0
-18 -40 0
18 40 0
-9 -16 0
9 16 0
-8 -14 0
8 14 0
-7 -12 0
7 12 0
-6 -13 0
6 13 0
-5 56 0
-5 26 0
5 -26 -56 0
-26 -56 0
26 56 0
4 -24 -48 0
4 -5 -48 0
4 -5 -24 0
-4 24 48 0
-4 5 48 0
-4 5 24 0
-4 48 0
-4 24 0
-4 5 0
5 24 48 0
3 -22 -46 0
3 -4 -46 0
3 -4 -22 0
-3 22 46 0
-3 4 46 0
-3 4 22 0
-3 46 0
-3 22 0
-3 4 0
4 22 46 0
2 -20 -44 0
2 -3 -44 0
2 -3 -20 0
-2 20 44 0
-2 3 44 0
-2 3 20 0
2 -44 0
2 -20 0
2 -3 0
-3 -20 -44 0
1 -18 -85 0
1 -2 -85 0
1 -2 -18 0
-1 18 85 0
-1 2 85 0
-1 2 18 0
1 -85 0
1 -18 0
1 -2 0
-2 -18 -85 0
-16 81 -87 0
-1 81 -87 0
-1 -16 81 0
16 -81 87 0
1 -81 87 0
1 16 -81 0
81 -87 0
-16 81 0
-1 81 0
-1 -16 -87 0
-14 70 -89 0
70 -81 -89 0
-14 70 -81 0
14 -70 89 0
-70 81 89 0
14 -70 81 0
70 -89 0
-14 70 0
70 -81 0
-14 -81 -89 0
-12 -57 78 0
-57 -70 78 0
-12 -70 78 0
12 57 -78 0
57 70 -78 0
12 70 -78 0
-57 78 0
-12 78 0
-70 78 0
-12 -57 -70 0
-13 58 -66 0
58 -66 -78 0
-13 58 -78 0
13 -58 66 0
-58 66 78 0
13 -58 78 0
58 -66 0
-13 58 0
58 -78 0
-13 -66 -78 0
-58 -61 0
58 -61 0
-58 61 0
